/*********************************************
 * OPL 12.10.0.0 Data
 * Author: ameyjoshi
 * Creation Date: Jul 25, 2020 at 10:40:08 PM
 *********************************************/

 nBins = 5;
 nBalls = 23;
 // Total weight = 79.
 weights = [3, 1, 4, 5, 2, 1, 4, 2, 3, 1, 8, 5, 3, 7, 2, 5, 2, 1, 6, 4, 2, 7, 1];
 capacity = [15, 25, 22, 20, 18];